33D32945 STP File, STP Format Version 1.0

SECTION Comment
Name "i640-304-PCST"
Creator "Indaco Biazzo" 
Remark "derived from Incidence graph by Cees Duin"
END

SECTION Graph
Nodes 640
Edges 960
E 1 76 289.000000
E 1 100 296.000000
E 1 179 202.000000
E 1 217 205.000000
E 1 347 203.000000
E 1 373 196.000000
E 1 438 206.000000
E 1 485 195.000000
E 1 511 197.000000
E 1 566 200.000000
E 2 84 295.000000
E 2 466 201.000000
E 2 483 199.000000
E 2 566 200.000000
E 3 413 205.000000
E 3 455 198.000000
E 4 59 293.000000
E 4 627 194.000000
E 5 75 305.000000
E 5 383 196.000000
E 6 243 191.000000
E 6 482 203.000000
E 6 626 198.000000
E 7 347 197.000000
E 8 127 308.000000
E 8 188 198.000000
E 8 236 202.000000
E 8 461 204.000000
E 8 503 202.000000
E 9 497 198.000000
E 10 116 301.000000
E 10 252 198.000000
E 11 291 194.000000
E 11 317 203.000000
E 11 460 204.000000
E 11 482 197.000000
E 12 93 296.000000
E 12 99 305.000000
E 12 380 206.000000
E 12 492 202.000000
E 13 25 300.000000
E 13 157 294.000000
E 14 140 293.000000
E 14 267 198.000000
E 15 30 299.000000
E 15 58 307.000000
E 15 198 200.000000
E 15 506 200.000000
E 16 342 199.000000
E 16 545 203.000000
E 16 570 193.000000
E 17 431 204.000000
E 18 51 311.000000
E 18 403 200.000000
E 18 440 203.000000
E 19 116 302.000000
E 19 175 199.000000
E 19 228 199.000000
E 19 433 198.000000
E 20 275 198.000000
E 20 287 201.000000
E 20 378 195.000000
E 20 382 202.000000
E 20 462 203.000000
E 20 526 207.000000
E 21 171 201.000000
E 21 212 204.000000
E 21 224 206.000000
E 21 321 196.000000
E 21 375 196.000000
E 22 36 295.000000
E 23 126 299.000000
E 23 154 301.000000
E 23 155 304.000000
E 23 196 203.000000
E 23 236 197.000000
E 23 353 208.000000
E 23 401 199.000000
E 23 405 201.000000
E 23 522 199.000000
E 23 530 199.000000
E 23 586 187.000000
E 23 597 197.000000
E 23 619 193.000000
E 24 362 202.000000
E 25 359 205.000000
E 26 114 300.000000
E 26 372 203.000000
E 27 65 300.000000
E 27 77 301.000000
E 27 204 186.000000
E 27 230 200.000000
E 27 320 205.000000
E 27 434 197.000000
E 27 464 198.000000
E 27 484 197.000000
E 27 589 201.000000
E 28 94 299.000000
E 28 309 198.000000
E 29 86 293.000000
E 29 117 300.000000
E 29 179 201.000000
E 29 203 191.000000
E 29 281 199.000000
E 29 316 199.000000
E 29 402 200.000000
E 29 428 199.000000
E 29 440 200.000000
E 29 625 201.000000
E 30 89 302.000000
E 30 93 296.000000
E 30 128 310.000000
E 30 273 200.000000
E 30 461 209.000000
E 31 316 199.000000
E 31 365 196.000000
E 32 501 198.000000
E 33 254 204.000000
E 33 629 200.000000
E 34 52 299.000000
E 34 189 202.000000
E 34 310 192.000000
E 35 94 307.000000
E 35 144 295.000000
E 35 270 205.000000
E 36 207 210.000000
E 36 410 204.000000
E 37 53 290.000000
E 37 381 200.000000
E 38 495 204.000000
E 38 568 198.000000
E 39 370 198.000000
E 39 413 200.000000
E 40 584 205.000000
E 41 123 300.000000
E 41 292 196.000000
E 41 421 204.000000
E 41 483 207.000000
E 42 91 301.000000
E 43 394 194.000000
E 44 154 291.000000
E 44 435 207.000000
E 45 60 302.000000
E 45 224 195.000000
E 45 227 197.000000
E 45 241 196.000000
E 45 282 201.000000
E 45 443 191.000000
E 45 585 199.000000
E 45 622 198.000000
E 46 160 308.000000
E 46 526 200.000000
E 47 72 307.000000
E 47 269 197.000000
E 47 480 193.000000
E 47 501 200.000000
E 48 96 300.000000
E 48 161 196.000000
E 48 432 201.000000
E 48 468 200.000000
E 49 213 205.000000
E 49 250 200.000000
E 49 478 214.000000
E 50 196 202.000000
E 50 631 206.000000
E 51 91 294.000000
E 51 607 198.000000
E 52 70 304.000000
E 52 93 303.000000
E 52 284 194.000000
E 52 471 205.000000
E 53 94 303.000000
E 53 97 302.000000
E 53 178 201.000000
E 53 245 200.000000
E 54 224 195.000000
E 54 267 206.000000
E 54 500 209.000000
E 54 580 198.000000
E 54 633 202.000000
E 55 122 305.000000
E 55 178 204.000000
E 55 324 203.000000
E 55 463 197.000000
E 55 533 205.000000
E 55 637 196.000000
E 56 183 191.000000
E 56 296 203.000000
E 56 376 201.000000
E 56 478 197.000000
E 57 390 195.000000
E 58 437 194.000000
E 59 141 294.000000
E 59 225 204.000000
E 59 313 205.000000
E 59 315 198.000000
E 60 373 199.000000
E 61 537 199.000000
E 62 85 295.000000
E 62 196 192.000000
E 62 313 205.000000
E 62 495 208.000000
E 62 504 190.000000
E 62 538 198.000000
E 63 267 200.000000
E 63 280 184.000000
E 63 309 196.000000
E 64 172 195.000000
E 64 212 198.000000
E 65 321 196.000000
E 65 370 205.000000
E 65 587 201.000000
E 66 73 300.000000
E 66 410 195.000000
E 67 70 307.000000
E 68 338 200.000000
E 68 432 208.000000
E 69 222 200.000000
E 69 357 207.000000
E 69 397 197.000000
E 69 553 198.000000
E 70 411 197.000000
E 70 523 197.000000
E 71 157 302.000000
E 71 330 195.000000
E 71 347 202.000000
E 72 462 194.000000
E 73 256 203.000000
E 73 592 196.000000
E 74 412 204.000000
E 74 442 201.000000
E 75 459 205.000000
E 76 80 298.000000
E 76 91 297.000000
E 76 94 291.000000
E 76 126 301.000000
E 76 156 298.000000
E 76 490 197.000000
E 76 515 198.000000
E 77 228 205.000000
E 77 476 200.000000
E 78 234 196.000000
E 78 305 191.000000
E 78 348 202.000000
E 78 593 196.000000
E 79 403 197.000000
E 79 468 203.000000
E 79 493 204.000000
E 80 104 312.000000
E 80 247 206.000000
E 80 534 196.000000
E 80 564 199.000000
E 80 605 200.000000
E 81 388 194.000000
E 82 133 298.000000
E 82 304 203.000000
E 82 559 192.000000
E 83 90 308.000000
E 83 395 194.000000
E 83 572 202.000000
E 84 109 300.000000
E 84 160 293.000000
E 84 396 208.000000
E 84 424 206.000000
E 86 87 305.000000
E 86 222 198.000000
E 86 460 197.000000
E 87 190 200.000000
E 87 232 198.000000
E 87 292 205.000000
E 87 608 206.000000
E 88 95 302.000000
E 88 153 291.000000
E 88 226 199.000000
E 88 287 203.000000
E 88 390 194.000000
E 88 413 203.000000
E 88 414 195.000000
E 88 526 198.000000
E 88 610 205.000000
E 89 184 200.000000
E 89 302 195.000000
E 89 404 198.000000
E 89 479 198.000000
E 89 589 198.000000
E 89 608 210.000000
E 90 236 208.000000
E 90 335 198.000000
E 90 520 203.000000
E 91 231 197.000000
E 92 269 193.000000
E 92 288 205.000000
E 92 626 201.000000
E 93 94 296.000000
E 93 337 196.000000
E 93 387 204.000000
E 93 434 195.000000
E 93 580 199.000000
E 93 592 194.000000
E 94 531 186.000000
E 94 585 202.000000
E 94 612 195.000000
E 95 100 301.000000
E 95 304 208.000000
E 95 573 205.000000
E 96 186 201.000000
E 96 249 201.000000
E 97 374 200.000000
E 97 522 189.000000
E 97 544 195.000000
E 98 422 200.000000
E 98 519 202.000000
E 98 610 200.000000
E 99 140 305.000000
E 99 200 199.000000
E 99 558 199.000000
E 100 119 295.000000
E 100 198 211.000000
E 100 277 199.000000
E 100 360 195.000000
E 100 433 201.000000
E 100 496 195.000000
E 101 132 294.000000
E 101 411 201.000000
E 102 190 206.000000
E 102 371 198.000000
E 102 412 200.000000
E 102 581 195.000000
E 102 600 199.000000
E 103 144 290.000000
E 103 220 198.000000
E 103 437 204.000000
E 103 631 200.000000
E 104 323 202.000000
E 104 338 195.000000
E 105 221 192.000000
E 105 239 209.000000
E 105 450 200.000000
E 105 564 203.000000
E 105 613 203.000000
E 106 255 200.000000
E 106 259 197.000000
E 106 593 190.000000
E 107 274 205.000000
E 108 505 193.000000
E 109 525 205.000000
E 109 638 203.000000
E 110 189 198.000000
E 110 606 194.000000
E 111 119 298.000000
E 111 345 199.000000
E 111 523 202.000000
E 111 570 208.000000
E 111 604 196.000000
E 112 197 199.000000
E 112 268 195.000000
E 112 279 193.000000
E 112 538 204.000000
E 112 543 198.000000
E 113 152 296.000000
E 113 186 205.000000
E 113 198 204.000000
E 113 495 198.000000
E 113 605 213.000000
E 114 333 199.000000
E 114 392 194.000000
E 115 324 213.000000
E 115 543 202.000000
E 116 150 300.000000
E 117 209 201.000000
E 117 270 203.000000
E 117 489 200.000000
E 118 193 199.000000
E 118 239 200.000000
E 118 302 202.000000
E 118 376 202.000000
E 118 407 186.000000
E 118 477 197.000000
E 118 498 204.000000
E 120 352 197.000000
E 120 380 195.000000
E 121 377 201.000000
E 122 327 196.000000
E 122 333 196.000000
E 122 585 198.000000
E 123 595 195.000000
E 124 343 206.000000
E 124 469 195.000000
E 124 635 195.000000
E 125 203 204.000000
E 125 215 197.000000
E 125 297 189.000000
E 126 235 197.000000
E 126 367 200.000000
E 127 180 195.000000
E 128 281 199.000000
E 128 379 206.000000
E 129 341 199.000000
E 130 619 203.000000
E 131 239 199.000000
E 131 408 202.000000
E 132 213 195.000000
E 132 249 192.000000
E 133 177 185.000000
E 133 447 193.000000
E 133 516 207.000000
E 134 236 198.000000
E 134 362 209.000000
E 134 388 199.000000
E 134 398 201.000000
E 134 450 191.000000
E 134 477 204.000000
E 134 519 199.000000
E 134 571 197.000000
E 135 216 197.000000
E 135 249 195.000000
E 135 457 198.000000
E 135 508 189.000000
E 136 352 202.000000
E 136 532 194.000000
E 137 424 207.000000
E 138 166 195.000000
E 138 230 196.000000
E 138 244 201.000000
E 138 347 207.000000
E 138 493 200.000000
E 139 238 201.000000
E 139 419 197.000000
E 140 346 207.000000
E 140 539 205.000000
E 141 157 303.000000
E 141 451 204.000000
E 141 583 211.000000
E 142 208 204.000000
E 142 259 195.000000
E 143 565 199.000000
E 144 359 204.000000
E 144 449 191.000000
E 144 582 205.000000
E 144 639 206.000000
E 145 313 201.000000
E 145 621 194.000000
E 146 543 198.000000
E 147 258 202.000000
E 148 231 209.000000
E 148 386 197.000000
E 149 220 194.000000
E 149 528 201.000000
E 150 471 199.000000
E 151 460 203.000000
E 152 292 202.000000
E 152 613 201.000000
E 154 181 204.000000
E 154 285 196.000000
E 154 374 204.000000
E 154 393 205.000000
E 154 430 207.000000
E 154 432 194.000000
E 154 439 206.000000
E 154 446 198.000000
E 154 536 196.000000
E 155 562 206.000000
E 155 588 193.000000
E 156 223 209.000000
E 157 241 199.000000
E 157 616 201.000000
E 158 376 201.000000
E 158 513 203.000000
E 158 591 200.000000
E 159 470 206.000000
E 159 552 210.000000
E 160 206 203.000000
E 160 329 199.000000
E 160 408 202.000000
E 161 412 104.000000
E 161 471 104.000000
E 162 179 102.000000
E 162 194 97.000000
E 162 255 107.000000
E 162 371 98.000000
E 163 464 101.000000
E 163 575 97.000000
E 164 276 101.000000
E 164 347 97.000000
E 164 634 100.000000
E 165 302 95.000000
E 166 328 96.000000
E 166 433 95.000000
E 166 516 109.000000
E 167 214 95.000000
E 167 448 102.000000
E 168 475 96.000000
E 168 507 92.000000
E 168 587 100.000000
E 169 217 98.000000
E 169 402 100.000000
E 170 187 98.000000
E 170 250 89.000000
E 170 348 104.000000
E 171 301 104.000000
E 171 429 107.000000
E 172 569 92.000000
E 173 471 96.000000
E 173 585 102.000000
E 174 199 102.000000
E 174 236 90.000000
E 174 239 103.000000
E 174 282 102.000000
E 174 441 103.000000
E 174 454 97.000000
E 174 517 98.000000
E 174 578 94.000000
E 175 530 106.000000
E 176 254 94.000000
E 176 470 101.000000
E 179 361 94.000000
E 179 605 101.000000
E 180 550 109.000000
E 180 618 100.000000
E 182 233 91.000000
E 182 414 104.000000
E 182 434 101.000000
E 182 533 96.000000
E 182 540 92.000000
E 183 250 103.000000
E 184 271 92.000000
E 184 471 100.000000
E 185 338 96.000000
E 185 356 96.000000
E 186 319 100.000000
E 186 488 98.000000
E 186 612 92.000000
E 187 377 102.000000
E 187 380 98.000000
E 187 563 99.000000
E 188 358 98.000000
E 188 401 95.000000
E 188 518 89.000000
E 188 555 101.000000
E 188 629 102.000000
E 189 235 102.000000
E 190 393 106.000000
E 191 386 96.000000
E 191 564 96.000000
E 191 590 100.000000
E 192 202 102.000000
E 192 217 101.000000
E 192 274 102.000000
E 192 590 103.000000
E 194 379 96.000000
E 194 416 103.000000
E 194 470 100.000000
E 195 363 107.000000
E 195 407 99.000000
E 196 209 101.000000
E 196 327 97.000000
E 197 263 96.000000
E 197 272 107.000000
E 197 373 104.000000
E 197 569 99.000000
E 198 257 98.000000
E 198 469 102.000000
E 199 338 94.000000
E 199 426 98.000000
E 200 295 88.000000
E 201 282 100.000000
E 201 429 99.000000
E 201 502 99.000000
E 201 528 100.000000
E 201 635 93.000000
E 202 473 99.000000
E 202 603 97.000000
E 203 261 107.000000
E 204 456 92.000000
E 204 554 105.000000
E 205 419 94.000000
E 208 410 99.000000
E 210 364 102.000000
E 211 270 101.000000
E 211 551 103.000000
E 212 433 101.000000
E 212 552 106.000000
E 212 570 102.000000
E 213 230 95.000000
E 213 450 97.000000
E 214 305 94.000000
E 214 406 92.000000
E 215 296 100.000000
E 215 304 103.000000
E 215 612 110.000000
E 216 282 95.000000
E 217 293 107.000000
E 217 521 105.000000
E 218 410 95.000000
E 218 461 103.000000
E 219 267 105.000000
E 220 296 105.000000
E 220 374 97.000000
E 220 423 92.000000
E 221 263 102.000000
E 221 286 102.000000
E 223 251 106.000000
E 225 380 102.000000
E 226 306 104.000000
E 227 294 99.000000
E 228 237 107.000000
E 228 550 109.000000
E 228 612 95.000000
E 229 271 95.000000
E 229 426 101.000000
E 229 493 104.000000
E 230 272 102.000000
E 230 554 103.000000
E 230 589 109.000000
E 230 591 104.000000
E 231 249 91.000000
E 231 267 104.000000
E 232 262 93.000000
E 232 521 104.000000
E 232 527 96.000000
E 233 434 104.000000
E 234 275 96.000000
E 234 413 102.000000
E 235 290 102.000000
E 235 386 97.000000
E 235 389 104.000000
E 235 425 104.000000
E 235 567 98.000000
E 235 599 101.000000
E 236 320 103.000000
E 236 500 90.000000
E 236 549 99.000000
E 237 280 105.000000
E 237 598 101.000000
E 239 481 99.000000
E 240 255 102.000000
E 240 326 96.000000
E 241 362 94.000000
E 242 610 102.000000
E 243 557 101.000000
E 246 325 91.000000
E 246 462 102.000000
E 248 558 91.000000
E 249 341 110.000000
E 251 301 94.000000
E 251 503 96.000000
E 252 273 106.000000
E 252 320 95.000000
E 252 357 97.000000
E 252 372 106.000000
E 253 359 107.000000
E 254 339 97.000000
E 254 427 92.000000
E 254 491 92.000000
E 255 292 97.000000
E 255 501 100.000000
E 255 575 97.000000
E 255 635 91.000000
E 256 348 96.000000
E 256 384 102.000000
E 256 611 96.000000
E 257 272 100.000000
E 257 491 97.000000
E 257 632 93.000000
E 258 586 97.000000
E 259 356 98.000000
E 259 418 99.000000
E 259 568 100.000000
E 259 595 104.000000
E 260 300 100.000000
E 261 543 97.000000
E 263 336 101.000000
E 264 298 100.000000
E 264 314 93.000000
E 265 505 102.000000
E 265 561 100.000000
E 266 405 100.000000
E 266 571 105.000000
E 267 449 103.000000
E 267 638 95.000000
E 268 351 99.000000
E 268 544 105.000000
E 270 634 101.000000
E 271 287 92.000000
E 271 382 107.000000
E 271 534 96.000000
E 272 351 112.000000
E 272 399 94.000000
E 274 346 97.000000
E 276 281 95.000000
E 277 445 105.000000
E 277 470 87.000000
E 278 587 97.000000
E 280 334 96.000000
E 280 452 105.000000
E 281 489 107.000000
E 282 451 98.000000
E 283 284 99.000000
E 283 343 95.000000
E 284 342 99.000000
E 284 616 90.000000
E 286 387 99.000000
E 288 305 95.000000
E 288 456 92.000000
E 288 499 96.000000
E 288 592 99.000000
E 289 469 94.000000
E 291 321 90.000000
E 292 311 94.000000
E 292 459 102.000000
E 292 514 110.000000
E 292 615 108.000000
E 293 376 98.000000
E 293 525 102.000000
E 296 374 107.000000
E 297 394 102.000000
E 297 414 104.000000
E 297 548 98.000000
E 297 570 94.000000
E 297 621 88.000000
E 298 307 103.000000
E 298 526 102.000000
E 299 439 100.000000
E 300 321 99.000000
E 300 372 96.000000
E 300 537 104.000000
E 300 575 99.000000
E 302 378 90.000000
E 302 394 98.000000
E 303 515 96.000000
E 305 400 97.000000
E 305 599 104.000000
E 307 587 102.000000
E 308 377 98.000000
E 308 412 101.000000
E 308 501 100.000000
E 309 482 97.000000
E 310 411 107.000000
E 310 640 97.000000
E 311 487 93.000000
E 312 330 98.000000
E 312 347 97.000000
E 312 504 89.000000
E 315 527 102.000000
E 315 628 104.000000
E 316 410 89.000000
E 316 417 98.000000
E 316 546 96.000000
E 316 602 94.000000
E 317 318 107.000000
E 317 350 102.000000
E 317 565 102.000000
E 319 320 93.000000
E 319 385 101.000000
E 319 532 102.000000
E 320 355 99.000000
E 320 570 97.000000
E 320 620 109.000000
E 321 377 96.000000
E 321 464 97.000000
E 321 559 101.000000
E 322 387 104.000000
E 323 432 105.000000
E 323 607 98.000000
E 325 372 109.000000
E 325 399 103.000000
E 325 555 95.000000
E 326 443 101.000000
E 327 398 97.000000
E 327 475 104.000000
E 329 598 101.000000
E 330 525 103.000000
E 331 553 95.000000
E 332 604 99.000000
E 334 427 97.000000
E 334 629 106.000000
E 336 526 101.000000
E 337 509 104.000000
E 338 478 96.000000
E 339 458 92.000000
E 339 608 95.000000
E 340 516 104.000000
E 340 540 98.000000
E 342 546 98.000000
E 343 438 98.000000
E 344 419 102.000000
E 347 400 106.000000
E 348 418 99.000000
E 349 393 106.000000
E 349 487 107.000000
E 350 486 98.000000
E 351 431 103.000000
E 352 444 94.000000
E 352 576 105.000000
E 354 499 99.000000
E 354 553 100.000000
E 355 610 98.000000
E 356 479 95.000000
E 358 436 95.000000
E 359 553 99.000000
E 360 580 100.000000
E 362 426 91.000000
E 362 431 100.000000
E 363 397 96.000000
E 364 387 96.000000
E 364 488 109.000000
E 364 533 97.000000
E 365 395 99.000000
E 365 403 102.000000
E 365 466 111.000000
E 365 585 96.000000
E 366 390 91.000000
E 367 427 101.000000
E 367 543 94.000000
E 367 616 108.000000
E 368 456 102.000000
E 369 566 105.000000
E 371 374 100.000000
E 371 539 109.000000
E 373 486 92.000000
E 374 510 92.000000
E 375 422 103.000000
E 376 390 101.000000
E 376 516 97.000000
E 378 408 103.000000
E 381 584 98.000000
E 381 618 92.000000
E 383 522 95.000000
E 386 420 99.000000
E 388 455 98.000000
E 390 405 96.000000
E 390 544 102.000000
E 391 587 103.000000
E 392 577 95.000000
E 392 633 102.000000
E 393 431 96.000000
E 393 466 95.000000
E 393 640 97.000000
E 395 495 103.000000
E 395 501 98.000000
E 396 413 100.000000
E 396 539 92.000000
E 397 476 105.000000
E 398 421 95.000000
E 400 497 105.000000
E 403 604 97.000000
E 405 415 99.000000
E 405 504 100.000000
E 405 518 102.000000
E 405 535 90.000000
E 405 542 104.000000
E 408 556 100.000000
E 408 563 101.000000
E 409 508 96.000000
E 410 530 103.000000
E 411 449 90.000000
E 413 524 104.000000
E 414 609 101.000000
E 415 526 96.000000
E 419 519 99.000000
E 419 621 95.000000
E 423 428 106.000000
E 424 438 98.000000
E 424 584 95.000000
E 425 557 98.000000
E 427 473 97.000000
E 427 574 99.000000
E 430 473 99.000000
E 430 577 105.000000
E 431 575 90.000000
E 432 593 90.000000
E 433 564 102.000000
E 435 527 97.000000
E 435 606 102.000000
E 436 592 93.000000
E 437 522 102.000000
E 440 559 92.000000
E 445 573 99.000000
E 448 580 100.000000
E 448 590 104.000000
E 452 568 101.000000
E 453 554 106.000000
E 453 583 102.000000
E 455 495 93.000000
E 455 529 100.000000
E 455 560 107.000000
E 457 595 94.000000
E 459 482 92.000000
E 459 559 102.000000
E 459 590 103.000000
E 460 618 105.000000
E 460 624 107.000000
E 462 496 95.000000
E 463 589 96.000000
E 465 616 90.000000
E 467 508 92.000000
E 467 547 98.000000
E 467 639 98.000000
E 468 476 103.000000
E 470 631 98.000000
E 471 529 101.000000
E 471 532 99.000000
E 472 502 96.000000
E 472 603 86.000000
E 474 566 94.000000
E 474 609 99.000000
E 475 537 100.000000
E 475 598 102.000000
E 476 552 99.000000
E 480 617 97.000000
E 484 588 104.000000
E 484 634 103.000000
E 485 547 94.000000
E 487 573 109.000000
E 490 516 91.000000
E 491 603 99.000000
E 494 525 104.000000
E 497 593 94.000000
E 499 617 101.000000
E 501 633 102.000000
E 503 598 95.000000
E 503 634 103.000000
E 505 596 105.000000
E 505 639 100.000000
E 507 555 99.000000
E 508 579 91.000000
E 511 567 101.000000
E 512 557 91.000000
E 512 563 101.000000
E 513 550 99.000000
E 513 616 102.000000
E 517 609 102.000000
E 524 547 108.000000
E 524 594 107.000000
E 524 601 107.000000
E 529 583 96.000000
E 532 544 111.000000
E 537 558 104.000000
E 538 598 103.000000
E 541 565 98.000000
E 541 574 107.000000
E 547 578 100.000000
E 547 638 99.000000
E 549 636 98.000000
E 554 630 98.000000
E 556 640 98.000000
E 557 601 109.000000
E 564 633 98.000000
E 566 571 101.000000
E 570 610 100.000000
E 571 614 101.000000
E 572 630 103.000000
E 581 612 97.000000
E 586 603 105.000000
E 591 592 97.000000
E 596 597 105.000000
E 597 623 110.000000
E 604 608 99.000000
E 607 610 98.000000
E 617 638 100.000000
END

SECTION Terminals
Terminals 160
TP 1 172.000000
TP 2 848.000000
TP 3 172.000000
TP 4 552.000000
TP 5 400.000000
TP 6 96.000000
TP 7 432.000000
TP 8 704.000000
TP 9 704.000000
TP 10 1220.000000
TP 11 948.000000
TP 12 340.000000
TP 13 748.000000
TP 14 1132.000000
TP 15 748.000000
TP 16 916.000000
TP 17 572.000000
TP 18 644.000000
TP 19 264.000000
TP 20 468.000000
TP 21 1148.000000
TP 22 732.000000
TP 23 500.000000
TP 24 580.000000
TP 25 696.000000
TP 26 152.000000
TP 27 720.000000
TP 28 220.000000
TP 29 156.000000
TP 30 700.000000
TP 31 52.000000
TP 32 180.000000
TP 33 296.000000
TP 34 1144.000000
TP 35 1160.000000
TP 36 268.000000
TP 37 124.000000
TP 38 304.000000
TP 39 184.000000
TP 40 824.000000
TP 41 888.000000
TP 42 460.000000
TP 43 992.000000
TP 44 296.000000
TP 45 32.000000
TP 46 576.000000
TP 47 1048.000000
TP 48 608.000000
TP 49 468.000000
TP 50 116.000000
TP 51 652.000000
TP 52 672.000000
TP 53 368.000000
TP 54 524.000000
TP 55 720.000000
TP 56 432.000000
TP 57 408.000000
TP 58 580.000000
TP 59 740.000000
TP 60 272.000000
TP 61 636.000000
TP 62 952.000000
TP 63 436.000000
TP 64 608.000000
TP 65 208.000000
TP 66 380.000000
TP 67 932.000000
TP 68 88.000000
TP 69 188.000000
TP 70 620.000000
TP 71 80.000000
TP 72 784.000000
TP 73 760.000000
TP 74 460.000000
TP 75 804.000000
TP 76 304.000000
TP 77 188.000000
TP 78 940.000000
TP 79 612.000000
TP 80 1188.000000
TP 81 588.000000
TP 82 852.000000
TP 83 72.000000
TP 84 1220.000000
TP 85 708.000000
TP 86 1212.000000
TP 87 544.000000
TP 88 1240.000000
TP 89 144.000000
TP 90 864.000000
TP 91 1088.000000
TP 92 0.000000
TP 93 700.000000
TP 94 752.000000
TP 95 932.000000
TP 96 1232.000000
TP 97 1128.000000
TP 98 1044.000000
TP 99 68.000000
TP 100 196.000000
TP 101 504.000000
TP 102 688.000000
TP 103 268.000000
TP 104 1156.000000
TP 105 368.000000
TP 106 116.000000
TP 107 412.000000
TP 108 448.000000
TP 109 1024.000000
TP 110 828.000000
TP 111 188.000000
TP 112 656.000000
TP 113 776.000000
TP 114 180.000000
TP 115 856.000000
TP 116 1228.000000
TP 117 508.000000
TP 118 1228.000000
TP 119 416.000000
TP 120 824.000000
TP 121 156.000000
TP 122 900.000000
TP 123 1176.000000
TP 124 564.000000
TP 125 268.000000
TP 126 704.000000
TP 127 68.000000
TP 128 280.000000
TP 129 660.000000
TP 130 348.000000
TP 131 440.000000
TP 132 628.000000
TP 133 4.000000
TP 134 84.000000
TP 135 872.000000
TP 136 384.000000
TP 137 848.000000
TP 138 404.000000
TP 139 712.000000
TP 140 904.000000
TP 141 596.000000
TP 142 1212.000000
TP 143 1156.000000
TP 144 496.000000
TP 145 104.000000
TP 146 176.000000
TP 147 152.000000
TP 148 864.000000
TP 149 828.000000
TP 150 128.000000
TP 151 120.000000
TP 152 268.000000
TP 153 1136.000000
TP 154 976.000000
TP 155 976.000000
TP 156 432.000000
TP 157 1184.000000
TP 158 872.000000
TP 159 856.000000
TP 160 740.000000
END

EOF
